WARNING: for repeatability, setting FPU to use double precision
============================[ Problem Statistics ]=============================
|                                                                             |
|  Number of variables:            50                                         |
|  Number of clauses:             218                                         |
|  Parse time:                   0.00 s                                       |
|                                                                             |
============================[ Search Statistics ]==============================
| Conflicts |          ORIGINAL         |          LEARNT          | Progress |
|           |    Vars  Clauses Literals |    Limit  Clauses Lit/Cl |          |
===============================================================================
===============================================================================
restarts              : 1
conflicts             : 37             (276119 /sec)
decisions             : 45             (0.00 % random) (335821 /sec)
propagations          : 676            (5044776 /sec)
conflict literals     : 131            (21.56 % deleted)
Memory used           : 20.00 MB
CPU time              : 0.000134 s

SATISFIABLE
